NAME : n60w140.001.423.tour
COMMENT : Length = 423
COMMENT : Found by LKH [Keld Helsgaun] Tue May  2 05:19:05 2017
TYPE : TOUR
DIMENSION : 61
TOUR_SECTION
1
19
4
33
34
41
8
56
30
18
12
45
7
59
25
20
16
40
13
5
57
9
22
43
29
26
3
15
53
55
28
60
37
46
58
48
32
44
17
36
47
21
54
10
51
38
35
27
6
49
50
39
52
11
24
31
42
14
2
61
23
-1
EOF
